\ This file has been generated by DOcplex
\ ENCODING=ISO-8859-1
\Problem name: Placement EV Chargers - Location Improvement

Minimize
 obj: 5000 v_0 + 5000 v_1 + 5000 v_2 + 5000 v_3 + 5000 v_4 + 5000 v_5 + 5000 v_6
      + 5000 v_7 + 5000 v_8 + 5000 v_9 + 500 w_0 + 500 w_1 + 500 w_2 + 500 w_3
      + 500 w_4 + 500 w_5 + 500 w_6 + 500 w_7 + 500 w_8 + 500 w_9
      + 14.563500000000 y_0_2_0 + 14.563500000000 y_0_2_1
      + 14.563500000000 y_0_2_2 + 14.563500000000 y_0_2_3
      + 14.563500000000 y_0_2_4 + 14.563500000000 y_0_2_5
      + 14.563500000000 y_0_2_6 + 14.563500000000 y_0_2_7
      + 14.563500000000 y_0_2_8 + 14.563500000000 y_0_2_9
      + 14.563500000000 y_0_5_0 + 14.563500000000 y_0_5_1
      + 14.563500000000 y_0_5_2 + 14.563500000000 y_0_5_3
      + 14.563500000000 y_0_5_4 + 14.563500000000 y_0_5_5
      + 14.563500000000 y_0_5_6 + 14.563500000000 y_0_5_7
      + 14.563500000000 y_0_5_8 + 14.563500000000 y_0_5_9
      + 14.563500000000 y_0_6_0 + 14.563500000000 y_0_6_1
      + 14.563500000000 y_0_6_2 + 14.563500000000 y_0_6_3
      + 14.563500000000 y_0_6_4 + 14.563500000000 y_0_6_5
      + 14.563500000000 y_0_6_6 + 14.563500000000 y_0_6_7
      + 14.563500000000 y_0_6_8 + 14.563500000000 y_0_6_9
      + 14.563500000000 y_0_8_0 + 14.563500000000 y_0_8_1
      + 14.563500000000 y_0_8_2 + 14.563500000000 y_0_8_3
      + 14.563500000000 y_0_8_4 + 14.563500000000 y_0_8_5
      + 14.563500000000 y_0_8_6 + 14.563500000000 y_0_8_7
      + 14.563500000000 y_0_8_8 + 14.563500000000 y_0_8_9
      + 14.563500000000 y_1_0_0 + 14.563500000000 y_1_0_1
      + 14.563500000000 y_1_0_2 + 14.563500000000 y_1_0_3
      + 14.563500000000 y_1_0_4 + 14.563500000000 y_1_0_5
      + 14.563500000000 y_1_0_6 + 14.563500000000 y_1_0_7
      + 14.563500000000 y_1_0_8 + 14.563500000000 y_1_0_9
      + 14.563500000000 y_1_1_0 + 14.563500000000 y_1_1_1
      + 14.563500000000 y_1_1_2 + 14.563500000000 y_1_1_3
      + 14.563500000000 y_1_1_4 + 14.563500000000 y_1_1_5
      + 14.563500000000 y_1_1_6 + 14.563500000000 y_1_1_7
      + 14.563500000000 y_1_1_8 + 14.563500000000 y_1_1_9
      + 14.563500000000 y_1_4_0 + 14.563500000000 y_1_4_1
      + 14.563500000000 y_1_4_2 + 14.563500000000 y_1_4_3
      + 14.563500000000 y_1_4_4 + 14.563500000000 y_1_4_5
      + 14.563500000000 y_1_4_6 + 14.563500000000 y_1_4_7
      + 14.563500000000 y_1_4_8 + 14.563500000000 y_1_4_9
Subject To
 number_w_0: w_0 - 8 v_0 <= 0
 number_w_1: w_1 - 8 v_1 <= 0
 number_w_2: w_2 - 8 v_2 <= 0
 number_w_3: w_3 - 8 v_3 <= 0
 number_w_4: w_4 - 8 v_4 <= 0
 number_w_5: w_5 - 8 v_5 <= 0
 number_w_6: w_6 - 8 v_6 <= 0
 number_w_7: w_7 - 8 v_7 <= 0
 number_w_8: w_8 - 8 v_8 <= 0
 number_w_9: w_9 - 8 v_9 <= 0
 number_v_0: v_0 - w_0 <= 0
 number_v_1: v_1 - w_1 <= 0
 number_v_2: v_2 - w_2 <= 0
 number_v_3: v_3 - w_3 <= 0
 number_v_4: v_4 - w_4 <= 0
 number_v_5: v_5 - w_5 <= 0
 number_v_6: v_6 - w_6 <= 0
 number_v_7: v_7 - w_7 <= 0
 number_v_8: v_8 - w_8 <= 0
 number_v_9: v_9 - w_9 <= 0
 allocation_qw_0_0: u_0_2_0 + u_0_5_0 + u_0_6_0 + u_0_8_0 - 2 w_0 <= 0
 allocation_qw_0_1: u_0_2_1 + u_0_5_1 + u_0_6_1 + u_0_8_1 - 2 w_1 <= 0
 allocation_qw_0_2: u_0_2_2 + u_0_5_2 + u_0_6_2 + u_0_8_2 - 2 w_2 <= 0
 allocation_qw_0_3: u_0_2_3 + u_0_5_3 + u_0_6_3 + u_0_8_3 - 2 w_3 <= 0
 allocation_qw_0_4: u_0_2_4 + u_0_5_4 + u_0_6_4 + u_0_8_4 - 2 w_4 <= 0
 allocation_qw_0_5: u_0_2_5 + u_0_5_5 + u_0_6_5 + u_0_8_5 - 2 w_5 <= 0
 allocation_qw_0_6: u_0_2_6 + u_0_5_6 + u_0_6_6 + u_0_8_6 - 2 w_6 <= 0
 allocation_qw_0_7: u_0_2_7 + u_0_5_7 + u_0_6_7 + u_0_8_7 - 2 w_7 <= 0
 allocation_qw_0_8: u_0_2_8 + u_0_5_8 + u_0_6_8 + u_0_8_8 - 2 w_8 <= 0
 allocation_qw_0_9: u_0_2_9 + u_0_5_9 + u_0_6_9 + u_0_8_9 - 2 w_9 <= 0
 service_level_0: u_0_2_0 + u_0_2_1 + u_0_2_2 + u_0_2_3 + u_0_2_4 + u_0_2_5
                  + u_0_2_6 + u_0_2_7 + u_0_2_8 + u_0_2_9 + u_0_5_0 + u_0_5_1
                  + u_0_5_2 + u_0_5_3 + u_0_5_4 + u_0_5_5 + u_0_5_6 + u_0_5_7
                  + u_0_5_8 + u_0_5_9 + u_0_6_0 + u_0_6_1 + u_0_6_2 + u_0_6_3
                  + u_0_6_4 + u_0_6_5 + u_0_6_6 + u_0_6_7 + u_0_6_8 + u_0_6_9
                  + u_0_8_0 + u_0_8_1 + u_0_8_2 + u_0_8_3 + u_0_8_4 + u_0_8_5
                  + u_0_8_6 + u_0_8_7 + u_0_8_8 + u_0_8_9 >= 3.800000000000
 charger_allocation_0_2: u_0_2_0 + u_0_2_1 + u_0_2_2 + u_0_2_3 + u_0_2_4
                         + u_0_2_5 + u_0_2_6 + u_0_2_7 + u_0_2_8 + u_0_2_9 <= 1
 charger_allocation_0_5: u_0_5_0 + u_0_5_1 + u_0_5_2 + u_0_5_3 + u_0_5_4
                         + u_0_5_5 + u_0_5_6 + u_0_5_7 + u_0_5_8 + u_0_5_9 <= 1
 charger_allocation_0_6: u_0_6_0 + u_0_6_1 + u_0_6_2 + u_0_6_3 + u_0_6_4
                         + u_0_6_5 + u_0_6_6 + u_0_6_7 + u_0_6_8 + u_0_6_9 <= 1
 charger_allocation_0_8: u_0_8_0 + u_0_8_1 + u_0_8_2 + u_0_8_3 + u_0_8_4
                         + u_0_8_5 + u_0_8_6 + u_0_8_7 + u_0_8_8 + u_0_8_9 <= 1
 range_0_2_0: y_0_2_0 - 3380.711726335687 u_0_2_0 <= 0
 range_0_2_1: y_0_2_1 - 3380.711726335687 u_0_2_1 <= 0
 range_0_2_2: y_0_2_2 - 3380.711726335687 u_0_2_2 <= 0
 range_0_2_3: y_0_2_3 - 3380.711726335687 u_0_2_3 <= 0
 range_0_2_4: y_0_2_4 - 3380.711726335687 u_0_2_4 <= 0
 range_0_2_5: y_0_2_5 - 3380.711726335687 u_0_2_5 <= 0
 range_0_2_6: y_0_2_6 - 3380.711726335687 u_0_2_6 <= 0
 range_0_2_7: y_0_2_7 - 3380.711726335687 u_0_2_7 <= 0
 range_0_2_8: y_0_2_8 - 3380.711726335687 u_0_2_8 <= 0
 range_0_2_9: y_0_2_9 - 3380.711726335687 u_0_2_9 <= 0
 range_0_5_0: y_0_5_0 - 739.408411199909 u_0_5_0 <= 0
 range_0_5_1: y_0_5_1 - 739.408411199909 u_0_5_1 <= 0
 range_0_5_2: y_0_5_2 - 739.408411199909 u_0_5_2 <= 0
 range_0_5_3: y_0_5_3 - 739.408411199909 u_0_5_3 <= 0
 range_0_5_4: y_0_5_4 - 739.408411199909 u_0_5_4 <= 0
 range_0_5_5: y_0_5_5 - 739.408411199909 u_0_5_5 <= 0
 range_0_5_6: y_0_5_6 - 739.408411199909 u_0_5_6 <= 0
 range_0_5_7: y_0_5_7 - 739.408411199909 u_0_5_7 <= 0
 range_0_5_8: y_0_5_8 - 739.408411199909 u_0_5_8 <= 0
 range_0_5_9: y_0_5_9 - 739.408411199909 u_0_5_9 <= 0
 range_0_6_0: y_0_6_0 - 5931.734888378960 u_0_6_0 <= 0
 range_0_6_1: y_0_6_1 - 5931.734888378960 u_0_6_1 <= 0
 range_0_6_2: y_0_6_2 - 5931.734888378960 u_0_6_2 <= 0
 range_0_6_3: y_0_6_3 - 5931.734888378960 u_0_6_3 <= 0
 range_0_6_4: y_0_6_4 - 5931.734888378960 u_0_6_4 <= 0
 range_0_6_5: y_0_6_5 - 5931.734888378960 u_0_6_5 <= 0
 range_0_6_6: y_0_6_6 - 5931.734888378960 u_0_6_6 <= 0
 range_0_6_7: y_0_6_7 - 5931.734888378960 u_0_6_7 <= 0
 range_0_6_8: y_0_6_8 - 5931.734888378960 u_0_6_8 <= 0
 range_0_6_9: y_0_6_9 - 5931.734888378960 u_0_6_9 <= 0
 range_0_8_0: y_0_8_0 - 3110.909010021836 u_0_8_0 <= 0
 range_0_8_1: y_0_8_1 - 3110.909010021836 u_0_8_1 <= 0
 range_0_8_2: y_0_8_2 - 3110.909010021836 u_0_8_2 <= 0
 range_0_8_3: y_0_8_3 - 3110.909010021836 u_0_8_3 <= 0
 range_0_8_4: y_0_8_4 - 3110.909010021836 u_0_8_4 <= 0
 range_0_8_5: y_0_8_5 - 3110.909010021836 u_0_8_5 <= 0
 range_0_8_6: y_0_8_6 - 3110.909010021836 u_0_8_6 <= 0
 range_0_8_7: y_0_8_7 - 3110.909010021836 u_0_8_7 <= 0
 range_0_8_8: y_0_8_8 - 3110.909010021836 u_0_8_8 <= 0
 range_0_8_9: y_0_8_9 - 3110.909010021836 u_0_8_9 <= 0
 distance_range_0_2_0: droot_2_0 + 3380.711726335687 u_0_2_0 - y_0_2_0 <= 
                       3380.711726335687
 distance_range_0_2_1: droot_2_1 + 3380.711726335687 u_0_2_1 - y_0_2_1 <= 
                       3380.711726335687
 distance_range_0_2_2: droot_2_2 + 3380.711726335687 u_0_2_2 - y_0_2_2 <= 
                       3380.711726335687
 distance_range_0_2_3: droot_2_3 + 3380.711726335687 u_0_2_3 - y_0_2_3 <= 
                       3380.711726335687
 distance_range_0_2_4: droot_2_4 + 3380.711726335687 u_0_2_4 - y_0_2_4 <= 
                       3380.711726335687
 distance_range_0_2_5: droot_2_5 + 3380.711726335687 u_0_2_5 - y_0_2_5 <= 
                       3380.711726335687
 distance_range_0_2_6: droot_2_6 + 3380.711726335687 u_0_2_6 - y_0_2_6 <= 
                       3380.711726335687
 distance_range_0_2_7: droot_2_7 + 3380.711726335687 u_0_2_7 - y_0_2_7 <= 
                       3380.711726335687
 distance_range_0_2_8: droot_2_8 + 3380.711726335687 u_0_2_8 - y_0_2_8 <= 
                       3380.711726335687
 distance_range_0_2_9: droot_2_9 + 3380.711726335687 u_0_2_9 - y_0_2_9 <= 
                       3380.711726335687
 distance_range_0_5_0: droot_5_0 + 739.408411199909 u_0_5_0 - y_0_5_0 <= 
                       739.408411199909
 distance_range_0_5_1: droot_5_1 + 739.408411199909 u_0_5_1 - y_0_5_1 <= 
                       739.408411199909
 distance_range_0_5_2: droot_5_2 + 739.408411199909 u_0_5_2 - y_0_5_2 <= 
                       739.408411199909
 distance_range_0_5_3: droot_5_3 + 739.408411199909 u_0_5_3 - y_0_5_3 <= 
                       739.408411199909
 distance_range_0_5_4: droot_5_4 + 739.408411199909 u_0_5_4 - y_0_5_4 <= 
                       739.408411199909
 distance_range_0_5_5: droot_5_5 + 739.408411199909 u_0_5_5 - y_0_5_5 <= 
                       739.408411199909
 distance_range_0_5_6: droot_5_6 + 739.408411199909 u_0_5_6 - y_0_5_6 <= 
                       739.408411199909
 distance_range_0_5_7: droot_5_7 + 739.408411199909 u_0_5_7 - y_0_5_7 <= 
                       739.408411199909
 distance_range_0_5_8: droot_5_8 + 739.408411199909 u_0_5_8 - y_0_5_8 <= 
                       739.408411199909
 distance_range_0_5_9: droot_5_9 + 739.408411199909 u_0_5_9 - y_0_5_9 <= 
                       739.408411199909
 distance_range_0_6_0: droot_6_0 + 5931.734888378960 u_0_6_0 - y_0_6_0 <= 
                       5931.734888378960
 distance_range_0_6_1: droot_6_1 + 5931.734888378960 u_0_6_1 - y_0_6_1 <= 
                       5931.734888378960
 distance_range_0_6_2: droot_6_2 + 5931.734888378960 u_0_6_2 - y_0_6_2 <= 
                       5931.734888378960
 distance_range_0_6_3: droot_6_3 + 5931.734888378960 u_0_6_3 - y_0_6_3 <= 
                       5931.734888378960
 distance_range_0_6_4: droot_6_4 + 5931.734888378960 u_0_6_4 - y_0_6_4 <= 
                       5931.734888378960
 distance_range_0_6_5: droot_6_5 + 5931.734888378960 u_0_6_5 - y_0_6_5 <= 
                       5931.734888378960
 distance_range_0_6_6: droot_6_6 + 5931.734888378960 u_0_6_6 - y_0_6_6 <= 
                       5931.734888378960
 distance_range_0_6_7: droot_6_7 + 5931.734888378960 u_0_6_7 - y_0_6_7 <= 
                       5931.734888378960
 distance_range_0_6_8: droot_6_8 + 5931.734888378960 u_0_6_8 - y_0_6_8 <= 
                       5931.734888378960
 distance_range_0_6_9: droot_6_9 + 5931.734888378960 u_0_6_9 - y_0_6_9 <= 
                       5931.734888378960
 distance_range_0_8_0: droot_8_0 + 3110.909010021836 u_0_8_0 - y_0_8_0 <= 
                       3110.909010021836
 distance_range_0_8_1: droot_8_1 + 3110.909010021836 u_0_8_1 - y_0_8_1 <= 
                       3110.909010021836
 distance_range_0_8_2: droot_8_2 + 3110.909010021836 u_0_8_2 - y_0_8_2 <= 
                       3110.909010021836
 distance_range_0_8_3: droot_8_3 + 3110.909010021836 u_0_8_3 - y_0_8_3 <= 
                       3110.909010021836
 distance_range_0_8_4: droot_8_4 + 3110.909010021836 u_0_8_4 - y_0_8_4 <= 
                       3110.909010021836
 distance_range_0_8_5: droot_8_5 + 3110.909010021836 u_0_8_5 - y_0_8_5 <= 
                       3110.909010021836
 distance_range_0_8_6: droot_8_6 + 3110.909010021836 u_0_8_6 - y_0_8_6 <= 
                       3110.909010021836
 distance_range_0_8_7: droot_8_7 + 3110.909010021836 u_0_8_7 - y_0_8_7 <= 
                       3110.909010021836
 distance_range_0_8_8: droot_8_8 + 3110.909010021836 u_0_8_8 - y_0_8_8 <= 
                       3110.909010021836
 distance_range_0_8_9: droot_8_9 + 3110.909010021836 u_0_8_9 - y_0_8_9 <= 
                       3110.909010021836
 distance_uperbound_0_2_0: y_0_2_0 - droot_2_0 <= 0
 distance_uperbound_0_2_1: y_0_2_1 - droot_2_1 <= 0
 distance_uperbound_0_2_2: y_0_2_2 - droot_2_2 <= 0
 distance_uperbound_0_2_3: y_0_2_3 - droot_2_3 <= 0
 distance_uperbound_0_2_4: y_0_2_4 - droot_2_4 <= 0
 distance_uperbound_0_2_5: y_0_2_5 - droot_2_5 <= 0
 distance_uperbound_0_2_6: y_0_2_6 - droot_2_6 <= 0
 distance_uperbound_0_2_7: y_0_2_7 - droot_2_7 <= 0
 distance_uperbound_0_2_8: y_0_2_8 - droot_2_8 <= 0
 distance_uperbound_0_2_9: y_0_2_9 - droot_2_9 <= 0
 distance_uperbound_0_5_0: y_0_5_0 - droot_5_0 <= 0
 distance_uperbound_0_5_1: y_0_5_1 - droot_5_1 <= 0
 distance_uperbound_0_5_2: y_0_5_2 - droot_5_2 <= 0
 distance_uperbound_0_5_3: y_0_5_3 - droot_5_3 <= 0
 distance_uperbound_0_5_4: y_0_5_4 - droot_5_4 <= 0
 distance_uperbound_0_5_5: y_0_5_5 - droot_5_5 <= 0
 distance_uperbound_0_5_6: y_0_5_6 - droot_5_6 <= 0
 distance_uperbound_0_5_7: y_0_5_7 - droot_5_7 <= 0
 distance_uperbound_0_5_8: y_0_5_8 - droot_5_8 <= 0
 distance_uperbound_0_5_9: y_0_5_9 - droot_5_9 <= 0
 distance_uperbound_0_6_0: y_0_6_0 - droot_6_0 <= 0
 distance_uperbound_0_6_1: y_0_6_1 - droot_6_1 <= 0
 distance_uperbound_0_6_2: y_0_6_2 - droot_6_2 <= 0
 distance_uperbound_0_6_3: y_0_6_3 - droot_6_3 <= 0
 distance_uperbound_0_6_4: y_0_6_4 - droot_6_4 <= 0
 distance_uperbound_0_6_5: y_0_6_5 - droot_6_5 <= 0
 distance_uperbound_0_6_6: y_0_6_6 - droot_6_6 <= 0
 distance_uperbound_0_6_7: y_0_6_7 - droot_6_7 <= 0
 distance_uperbound_0_6_8: y_0_6_8 - droot_6_8 <= 0
 distance_uperbound_0_6_9: y_0_6_9 - droot_6_9 <= 0
 distance_uperbound_0_8_0: y_0_8_0 - droot_8_0 <= 0
 distance_uperbound_0_8_1: y_0_8_1 - droot_8_1 <= 0
 distance_uperbound_0_8_2: y_0_8_2 - droot_8_2 <= 0
 distance_uperbound_0_8_3: y_0_8_3 - droot_8_3 <= 0
 distance_uperbound_0_8_4: y_0_8_4 - droot_8_4 <= 0
 distance_uperbound_0_8_5: y_0_8_5 - droot_8_5 <= 0
 distance_uperbound_0_8_6: y_0_8_6 - droot_8_6 <= 0
 distance_uperbound_0_8_7: y_0_8_7 - droot_8_7 <= 0
 distance_uperbound_0_8_8: y_0_8_8 - droot_8_8 <= 0
 distance_uperbound_0_8_9: y_0_8_9 - droot_8_9 <= 0
 allocation_qw_1_0: u_1_0_0 + u_1_1_0 + u_1_4_0 - 2 w_0 <= 0
 allocation_qw_1_1: u_1_0_1 + u_1_1_1 + u_1_4_1 - 2 w_1 <= 0
 allocation_qw_1_2: u_1_0_2 + u_1_1_2 + u_1_4_2 - 2 w_2 <= 0
 allocation_qw_1_3: u_1_0_3 + u_1_1_3 + u_1_4_3 - 2 w_3 <= 0
 allocation_qw_1_4: u_1_0_4 + u_1_1_4 + u_1_4_4 - 2 w_4 <= 0
 allocation_qw_1_5: u_1_0_5 + u_1_1_5 + u_1_4_5 - 2 w_5 <= 0
 allocation_qw_1_6: u_1_0_6 + u_1_1_6 + u_1_4_6 - 2 w_6 <= 0
 allocation_qw_1_7: u_1_0_7 + u_1_1_7 + u_1_4_7 - 2 w_7 <= 0
 allocation_qw_1_8: u_1_0_8 + u_1_1_8 + u_1_4_8 - 2 w_8 <= 0
 allocation_qw_1_9: u_1_0_9 + u_1_1_9 + u_1_4_9 - 2 w_9 <= 0
 service_level_1: u_1_0_0 + u_1_0_1 + u_1_0_2 + u_1_0_3 + u_1_0_4 + u_1_0_5
                  + u_1_0_6 + u_1_0_7 + u_1_0_8 + u_1_0_9 + u_1_1_0 + u_1_1_1
                  + u_1_1_2 + u_1_1_3 + u_1_1_4 + u_1_1_5 + u_1_1_6 + u_1_1_7
                  + u_1_1_8 + u_1_1_9 + u_1_4_0 + u_1_4_1 + u_1_4_2 + u_1_4_3
                  + u_1_4_4 + u_1_4_5 + u_1_4_6 + u_1_4_7 + u_1_4_8 + u_1_4_9
                   >= 2.850000000000
 charger_allocation_1_0: u_1_0_0 + u_1_0_1 + u_1_0_2 + u_1_0_3 + u_1_0_4
                         + u_1_0_5 + u_1_0_6 + u_1_0_7 + u_1_0_8 + u_1_0_9 <= 1
 charger_allocation_1_1: u_1_1_0 + u_1_1_1 + u_1_1_2 + u_1_1_3 + u_1_1_4
                         + u_1_1_5 + u_1_1_6 + u_1_1_7 + u_1_1_8 + u_1_1_9 <= 1
 charger_allocation_1_4: u_1_4_0 + u_1_4_1 + u_1_4_2 + u_1_4_3 + u_1_4_4
                         + u_1_4_5 + u_1_4_6 + u_1_4_7 + u_1_4_8 + u_1_4_9 <= 1
 range_1_0_0: y_1_0_0 - 18951.001560648321 u_1_0_0 <= 0
 range_1_0_1: y_1_0_1 - 18951.001560648321 u_1_0_1 <= 0
 range_1_0_2: y_1_0_2 - 18951.001560648321 u_1_0_2 <= 0
 range_1_0_3: y_1_0_3 - 18951.001560648321 u_1_0_3 <= 0
 range_1_0_4: y_1_0_4 - 18951.001560648321 u_1_0_4 <= 0
 range_1_0_5: y_1_0_5 - 18951.001560648321 u_1_0_5 <= 0
 range_1_0_6: y_1_0_6 - 18951.001560648321 u_1_0_6 <= 0
 range_1_0_7: y_1_0_7 - 18951.001560648321 u_1_0_7 <= 0
 range_1_0_8: y_1_0_8 - 18951.001560648321 u_1_0_8 <= 0
 range_1_0_9: y_1_0_9 - 18951.001560648321 u_1_0_9 <= 0
 range_1_1_0: y_1_1_0 - 3183.200166375941 u_1_1_0 <= 0
 range_1_1_1: y_1_1_1 - 3183.200166375941 u_1_1_1 <= 0
 range_1_1_2: y_1_1_2 - 3183.200166375941 u_1_1_2 <= 0
 range_1_1_3: y_1_1_3 - 3183.200166375941 u_1_1_3 <= 0
 range_1_1_4: y_1_1_4 - 3183.200166375941 u_1_1_4 <= 0
 range_1_1_5: y_1_1_5 - 3183.200166375941 u_1_1_5 <= 0
 range_1_1_6: y_1_1_6 - 3183.200166375941 u_1_1_6 <= 0
 range_1_1_7: y_1_1_7 - 3183.200166375941 u_1_1_7 <= 0
 range_1_1_8: y_1_1_8 - 3183.200166375941 u_1_1_8 <= 0
 range_1_1_9: y_1_1_9 - 3183.200166375941 u_1_1_9 <= 0
 range_1_4_0: y_1_4_0 - 1950.202417528016 u_1_4_0 <= 0
 range_1_4_1: y_1_4_1 - 1950.202417528016 u_1_4_1 <= 0
 range_1_4_2: y_1_4_2 - 1950.202417528016 u_1_4_2 <= 0
 range_1_4_3: y_1_4_3 - 1950.202417528016 u_1_4_3 <= 0
 range_1_4_4: y_1_4_4 - 1950.202417528016 u_1_4_4 <= 0
 range_1_4_5: y_1_4_5 - 1950.202417528016 u_1_4_5 <= 0
 range_1_4_6: y_1_4_6 - 1950.202417528016 u_1_4_6 <= 0
 range_1_4_7: y_1_4_7 - 1950.202417528016 u_1_4_7 <= 0
 range_1_4_8: y_1_4_8 - 1950.202417528016 u_1_4_8 <= 0
 range_1_4_9: y_1_4_9 - 1950.202417528016 u_1_4_9 <= 0
 distance_range_1_0_0: droot_0_0 + 18951.001560648321 u_1_0_0 - y_1_0_0 <= 
                       18951.001560648321
 distance_range_1_0_1: droot_0_1 + 18951.001560648321 u_1_0_1 - y_1_0_1 <= 
                       18951.001560648321
 distance_range_1_0_2: droot_0_2 + 18951.001560648321 u_1_0_2 - y_1_0_2 <= 
                       18951.001560648321
 distance_range_1_0_3: droot_0_3 + 18951.001560648321 u_1_0_3 - y_1_0_3 <= 
                       18951.001560648321
 distance_range_1_0_4: droot_0_4 + 18951.001560648321 u_1_0_4 - y_1_0_4 <= 
                       18951.001560648321
 distance_range_1_0_5: droot_0_5 + 18951.001560648321 u_1_0_5 - y_1_0_5 <= 
                       18951.001560648321
 distance_range_1_0_6: droot_0_6 + 18951.001560648321 u_1_0_6 - y_1_0_6 <= 
                       18951.001560648321
 distance_range_1_0_7: droot_0_7 + 18951.001560648321 u_1_0_7 - y_1_0_7 <= 
                       18951.001560648321
 distance_range_1_0_8: droot_0_8 + 18951.001560648321 u_1_0_8 - y_1_0_8 <= 
                       18951.001560648321
 distance_range_1_0_9: droot_0_9 + 18951.001560648321 u_1_0_9 - y_1_0_9 <= 
                       18951.001560648321
 distance_range_1_1_0: droot_1_0 + 3183.200166375941 u_1_1_0 - y_1_1_0 <= 
                       3183.200166375941
 distance_range_1_1_1: droot_1_1 + 3183.200166375941 u_1_1_1 - y_1_1_1 <= 
                       3183.200166375941
 distance_range_1_1_2: droot_1_2 + 3183.200166375941 u_1_1_2 - y_1_1_2 <= 
                       3183.200166375941
 distance_range_1_1_3: droot_1_3 + 3183.200166375941 u_1_1_3 - y_1_1_3 <= 
                       3183.200166375941
 distance_range_1_1_4: droot_1_4 + 3183.200166375941 u_1_1_4 - y_1_1_4 <= 
                       3183.200166375941
 distance_range_1_1_5: droot_1_5 + 3183.200166375941 u_1_1_5 - y_1_1_5 <= 
                       3183.200166375941
 distance_range_1_1_6: droot_1_6 + 3183.200166375941 u_1_1_6 - y_1_1_6 <= 
                       3183.200166375941
 distance_range_1_1_7: droot_1_7 + 3183.200166375941 u_1_1_7 - y_1_1_7 <= 
                       3183.200166375941
 distance_range_1_1_8: droot_1_8 + 3183.200166375941 u_1_1_8 - y_1_1_8 <= 
                       3183.200166375941
 distance_range_1_1_9: droot_1_9 + 3183.200166375941 u_1_1_9 - y_1_1_9 <= 
                       3183.200166375941
 distance_range_1_4_0: droot_4_0 + 1950.202417528016 u_1_4_0 - y_1_4_0 <= 
                       1950.202417528016
 distance_range_1_4_1: droot_4_1 + 1950.202417528016 u_1_4_1 - y_1_4_1 <= 
                       1950.202417528016
 distance_range_1_4_2: droot_4_2 + 1950.202417528016 u_1_4_2 - y_1_4_2 <= 
                       1950.202417528016
 distance_range_1_4_3: droot_4_3 + 1950.202417528016 u_1_4_3 - y_1_4_3 <= 
                       1950.202417528016
 distance_range_1_4_4: droot_4_4 + 1950.202417528016 u_1_4_4 - y_1_4_4 <= 
                       1950.202417528016
 distance_range_1_4_5: droot_4_5 + 1950.202417528016 u_1_4_5 - y_1_4_5 <= 
                       1950.202417528016
 distance_range_1_4_6: droot_4_6 + 1950.202417528016 u_1_4_6 - y_1_4_6 <= 
                       1950.202417528016
 distance_range_1_4_7: droot_4_7 + 1950.202417528016 u_1_4_7 - y_1_4_7 <= 
                       1950.202417528016
 distance_range_1_4_8: droot_4_8 + 1950.202417528016 u_1_4_8 - y_1_4_8 <= 
                       1950.202417528016
 distance_range_1_4_9: droot_4_9 + 1950.202417528016 u_1_4_9 - y_1_4_9 <= 
                       1950.202417528016
 distance_uperbound_1_0_0: y_1_0_0 - droot_0_0 <= 0
 distance_uperbound_1_0_1: y_1_0_1 - droot_0_1 <= 0
 distance_uperbound_1_0_2: y_1_0_2 - droot_0_2 <= 0
 distance_uperbound_1_0_3: y_1_0_3 - droot_0_3 <= 0
 distance_uperbound_1_0_4: y_1_0_4 - droot_0_4 <= 0
 distance_uperbound_1_0_5: y_1_0_5 - droot_0_5 <= 0
 distance_uperbound_1_0_6: y_1_0_6 - droot_0_6 <= 0
 distance_uperbound_1_0_7: y_1_0_7 - droot_0_7 <= 0
 distance_uperbound_1_0_8: y_1_0_8 - droot_0_8 <= 0
 distance_uperbound_1_0_9: y_1_0_9 - droot_0_9 <= 0
 distance_uperbound_1_1_0: y_1_1_0 - droot_1_0 <= 0
 distance_uperbound_1_1_1: y_1_1_1 - droot_1_1 <= 0
 distance_uperbound_1_1_2: y_1_1_2 - droot_1_2 <= 0
 distance_uperbound_1_1_3: y_1_1_3 - droot_1_3 <= 0
 distance_uperbound_1_1_4: y_1_1_4 - droot_1_4 <= 0
 distance_uperbound_1_1_5: y_1_1_5 - droot_1_5 <= 0
 distance_uperbound_1_1_6: y_1_1_6 - droot_1_6 <= 0
 distance_uperbound_1_1_7: y_1_1_7 - droot_1_7 <= 0
 distance_uperbound_1_1_8: y_1_1_8 - droot_1_8 <= 0
 distance_uperbound_1_1_9: y_1_1_9 - droot_1_9 <= 0
 distance_uperbound_1_4_0: y_1_4_0 - droot_4_0 <= 0
 distance_uperbound_1_4_1: y_1_4_1 - droot_4_1 <= 0
 distance_uperbound_1_4_2: y_1_4_2 - droot_4_2 <= 0
 distance_uperbound_1_4_3: y_1_4_3 - droot_4_3 <= 0
 distance_uperbound_1_4_4: y_1_4_4 - droot_4_4 <= 0
 distance_uperbound_1_4_5: y_1_4_5 - droot_4_5 <= 0
 distance_uperbound_1_4_6: y_1_4_6 - droot_4_6 <= 0
 distance_uperbound_1_4_7: y_1_4_7 - droot_4_7 <= 0
 distance_uperbound_1_4_8: y_1_4_8 - droot_4_8 <= 0
 distance_uperbound_1_4_9: y_1_4_9 - droot_4_9 <= 0
 qc1: [ - x_0_0^2 - x_0_1^2 ] + droot_0_0 + 73.460000000000 x_0_0
      + 76.700000000000 x_0_1 >= 2819.815400000000
 qc2: [ - x_1_0^2 - x_1_1^2 ] + droot_0_1 + 73.460000000000 x_1_0
      + 76.700000000000 x_1_1 >= 2819.815400000000
 qc3: [ - x_2_0^2 - x_2_1^2 ] + droot_0_2 + 73.460000000000 x_2_0
      + 76.700000000000 x_2_1 >= 2819.815400000000
 qc4: [ - x_3_0^2 - x_3_1^2 ] + droot_0_3 + 73.460000000000 x_3_0
      + 76.700000000000 x_3_1 >= 2819.815400000000
 qc5: [ - x_4_0^2 - x_4_1^2 ] + droot_0_4 + 73.460000000000 x_4_0
      + 76.700000000000 x_4_1 >= 2819.815400000000
 qc6: [ - x_5_0^2 - x_5_1^2 ] + droot_0_5 + 73.460000000000 x_5_0
      + 76.700000000000 x_5_1 >= 2819.815400000000
 qc7: [ - x_6_0^2 - x_6_1^2 ] + droot_0_6 + 73.460000000000 x_6_0
      + 76.700000000000 x_6_1 >= 2819.815400000000
 qc8: [ - x_7_0^2 - x_7_1^2 ] + droot_0_7 + 73.460000000000 x_7_0
      + 76.700000000000 x_7_1 >= 2819.815400000000
 qc9: [ - x_8_0^2 - x_8_1^2 ] + droot_0_8 + 73.460000000000 x_8_0
      + 76.700000000000 x_8_1 >= 2819.815400000000
 qc10: [ - x_9_0^2 - x_9_1^2 ] + droot_0_9 + 73.460000000000 x_9_0
       + 76.700000000000 x_9_1 >= 2819.815400000000
 qc11: [ - x_0_0^2 - x_0_1^2 ] + droot_1_0 + 12.960000000000 x_0_0
       + 82.140000000000 x_0_1 >= 1728.735300000000
 qc12: [ - x_1_0^2 - x_1_1^2 ] + droot_1_1 + 12.960000000000 x_1_0
       + 82.140000000000 x_1_1 >= 1728.735300000000
 qc13: [ - x_2_0^2 - x_2_1^2 ] + droot_1_2 + 12.960000000000 x_2_0
       + 82.140000000000 x_2_1 >= 1728.735300000000
 qc14: [ - x_3_0^2 - x_3_1^2 ] + droot_1_3 + 12.960000000000 x_3_0
       + 82.140000000000 x_3_1 >= 1728.735300000000
 qc15: [ - x_4_0^2 - x_4_1^2 ] + droot_1_4 + 12.960000000000 x_4_0
       + 82.140000000000 x_4_1 >= 1728.735300000000
 qc16: [ - x_5_0^2 - x_5_1^2 ] + droot_1_5 + 12.960000000000 x_5_0
       + 82.140000000000 x_5_1 >= 1728.735300000000
 qc17: [ - x_6_0^2 - x_6_1^2 ] + droot_1_6 + 12.960000000000 x_6_0
       + 82.140000000000 x_6_1 >= 1728.735300000000
 qc18: [ - x_7_0^2 - x_7_1^2 ] + droot_1_7 + 12.960000000000 x_7_0
       + 82.140000000000 x_7_1 >= 1728.735300000000
 qc19: [ - x_8_0^2 - x_8_1^2 ] + droot_1_8 + 12.960000000000 x_8_0
       + 82.140000000000 x_8_1 >= 1728.735300000000
 qc20: [ - x_9_0^2 - x_9_1^2 ] + droot_1_9 + 12.960000000000 x_9_0
       + 82.140000000000 x_9_1 >= 1728.735300000000
 qc21: [ - x_0_0^2 - x_0_1^2 ] + droot_2_0 + 62.320000000000 x_0_0
       + 94.880000000000 x_0_1 >= 3221.499200000000
 qc22: [ - x_1_0^2 - x_1_1^2 ] + droot_2_1 + 62.320000000000 x_1_0
       + 94.880000000000 x_1_1 >= 3221.499200000000
 qc23: [ - x_2_0^2 - x_2_1^2 ] + droot_2_2 + 62.320000000000 x_2_0
       + 94.880000000000 x_2_1 >= 3221.499200000000
 qc24: [ - x_3_0^2 - x_3_1^2 ] + droot_2_3 + 62.320000000000 x_3_0
       + 94.880000000000 x_3_1 >= 3221.499200000000
 qc25: [ - x_4_0^2 - x_4_1^2 ] + droot_2_4 + 62.320000000000 x_4_0
       + 94.880000000000 x_4_1 >= 3221.499200000000
 qc26: [ - x_5_0^2 - x_5_1^2 ] + droot_2_5 + 62.320000000000 x_5_0
       + 94.880000000000 x_5_1 >= 3221.499200000000
 qc27: [ - x_6_0^2 - x_6_1^2 ] + droot_2_6 + 62.320000000000 x_6_0
       + 94.880000000000 x_6_1 >= 3221.499200000000
 qc28: [ - x_7_0^2 - x_7_1^2 ] + droot_2_7 + 62.320000000000 x_7_0
       + 94.880000000000 x_7_1 >= 3221.499200000000
 qc29: [ - x_8_0^2 - x_8_1^2 ] + droot_2_8 + 62.320000000000 x_8_0
       + 94.880000000000 x_8_1 >= 3221.499200000000
 qc30: [ - x_9_0^2 - x_9_1^2 ] + droot_2_9 + 62.320000000000 x_9_0
       + 94.880000000000 x_9_1 >= 3221.499200000000
 qc31: [ - x_0_0^2 - x_0_1^2 ] + droot_3_0 + 32.880000000000 x_0_0
       + 47.220000000000 x_0_1 >= 827.705700000000
 qc32: [ - x_1_0^2 - x_1_1^2 ] + droot_3_1 + 32.880000000000 x_1_0
       + 47.220000000000 x_1_1 >= 827.705700000000
 qc33: [ - x_2_0^2 - x_2_1^2 ] + droot_3_2 + 32.880000000000 x_2_0
       + 47.220000000000 x_2_1 >= 827.705700000000
 qc34: [ - x_3_0^2 - x_3_1^2 ] + droot_3_3 + 32.880000000000 x_3_0
       + 47.220000000000 x_3_1 >= 827.705700000000
 qc35: [ - x_4_0^2 - x_4_1^2 ] + droot_3_4 + 32.880000000000 x_4_0
       + 47.220000000000 x_4_1 >= 827.705700000000
 qc36: [ - x_5_0^2 - x_5_1^2 ] + droot_3_5 + 32.880000000000 x_5_0
       + 47.220000000000 x_5_1 >= 827.705700000000
 qc37: [ - x_6_0^2 - x_6_1^2 ] + droot_3_6 + 32.880000000000 x_6_0
       + 47.220000000000 x_6_1 >= 827.705700000000
 qc38: [ - x_7_0^2 - x_7_1^2 ] + droot_3_7 + 32.880000000000 x_7_0
       + 47.220000000000 x_7_1 >= 827.705700000000
 qc39: [ - x_8_0^2 - x_8_1^2 ] + droot_3_8 + 32.880000000000 x_8_0
       + 47.220000000000 x_8_1 >= 827.705700000000
 qc40: [ - x_9_0^2 - x_9_1^2 ] + droot_3_9 + 32.880000000000 x_9_0
       + 47.220000000000 x_9_1 >= 827.705700000000
 qc41: [ - x_0_0^2 - x_0_1^2 ] + droot_4_0 + 61.620000000000 x_0_0
       + 47.740000000000 x_0_1 >= 1519.033000000000
 qc42: [ - x_1_0^2 - x_1_1^2 ] + droot_4_1 + 61.620000000000 x_1_0
       + 47.740000000000 x_1_1 >= 1519.033000000000
 qc43: [ - x_2_0^2 - x_2_1^2 ] + droot_4_2 + 61.620000000000 x_2_0
       + 47.740000000000 x_2_1 >= 1519.033000000000
 qc44: [ - x_3_0^2 - x_3_1^2 ] + droot_4_3 + 61.620000000000 x_3_0
       + 47.740000000000 x_3_1 >= 1519.033000000000
 qc45: [ - x_4_0^2 - x_4_1^2 ] + droot_4_4 + 61.620000000000 x_4_0
       + 47.740000000000 x_4_1 >= 1519.033000000000
 qc46: [ - x_5_0^2 - x_5_1^2 ] + droot_4_5 + 61.620000000000 x_5_0
       + 47.740000000000 x_5_1 >= 1519.033000000000
 qc47: [ - x_6_0^2 - x_6_1^2 ] + droot_4_6 + 61.620000000000 x_6_0
       + 47.740000000000 x_6_1 >= 1519.033000000000
 qc48: [ - x_7_0^2 - x_7_1^2 ] + droot_4_7 + 61.620000000000 x_7_0
       + 47.740000000000 x_7_1 >= 1519.033000000000
 qc49: [ - x_8_0^2 - x_8_1^2 ] + droot_4_8 + 61.620000000000 x_8_0
       + 47.740000000000 x_8_1 >= 1519.033000000000
 qc50: [ - x_9_0^2 - x_9_1^2 ] + droot_4_9 + 61.620000000000 x_9_0
       + 47.740000000000 x_9_1 >= 1519.033000000000
 qc51: [ - x_0_0^2 - x_0_1^2 ] + droot_5_0 + 32.560000000000 x_0_0
       + 128.660000000000 x_0_1 >= 4403.387300000000
 qc52: [ - x_1_0^2 - x_1_1^2 ] + droot_5_1 + 32.560000000000 x_1_0
       + 128.660000000000 x_1_1 >= 4403.387300000000
 qc53: [ - x_2_0^2 - x_2_1^2 ] + droot_5_2 + 32.560000000000 x_2_0
       + 128.660000000000 x_2_1 >= 4403.387300000000
 qc54: [ - x_3_0^2 - x_3_1^2 ] + droot_5_3 + 32.560000000000 x_3_0
       + 128.660000000000 x_3_1 >= 4403.387300000000
 qc55: [ - x_4_0^2 - x_4_1^2 ] + droot_5_4 + 32.560000000000 x_4_0
       + 128.660000000000 x_4_1 >= 4403.387300000000
 qc56: [ - x_5_0^2 - x_5_1^2 ] + droot_5_5 + 32.560000000000 x_5_0
       + 128.660000000000 x_5_1 >= 4403.387300000000
 qc57: [ - x_6_0^2 - x_6_1^2 ] + droot_5_6 + 32.560000000000 x_6_0
       + 128.660000000000 x_6_1 >= 4403.387300000000
 qc58: [ - x_7_0^2 - x_7_1^2 ] + droot_5_7 + 32.560000000000 x_7_0
       + 128.660000000000 x_7_1 >= 4403.387300000000
 qc59: [ - x_8_0^2 - x_8_1^2 ] + droot_5_8 + 32.560000000000 x_8_0
       + 128.660000000000 x_8_1 >= 4403.387300000000
 qc60: [ - x_9_0^2 - x_9_1^2 ] + droot_5_9 + 32.560000000000 x_9_0
       + 128.660000000000 x_9_1 >= 4403.387300000000
 qc61: [ - x_0_0^2 - x_0_1^2 ] + droot_6_0 + 22.680000000000 x_0_0
       + 78.620000000000 x_0_1 >= 1673.871700000000
 qc62: [ - x_1_0^2 - x_1_1^2 ] + droot_6_1 + 22.680000000000 x_1_0
       + 78.620000000000 x_1_1 >= 1673.871700000000
 qc63: [ - x_2_0^2 - x_2_1^2 ] + droot_6_2 + 22.680000000000 x_2_0
       + 78.620000000000 x_2_1 >= 1673.871700000000
 qc64: [ - x_3_0^2 - x_3_1^2 ] + droot_6_3 + 22.680000000000 x_3_0
       + 78.620000000000 x_3_1 >= 1673.871700000000
 qc65: [ - x_4_0^2 - x_4_1^2 ] + droot_6_4 + 22.680000000000 x_4_0
       + 78.620000000000 x_4_1 >= 1673.871700000000
 qc66: [ - x_5_0^2 - x_5_1^2 ] + droot_6_5 + 22.680000000000 x_5_0
       + 78.620000000000 x_5_1 >= 1673.871700000000
 qc67: [ - x_6_0^2 - x_6_1^2 ] + droot_6_6 + 22.680000000000 x_6_0
       + 78.620000000000 x_6_1 >= 1673.871700000000
 qc68: [ - x_7_0^2 - x_7_1^2 ] + droot_6_7 + 22.680000000000 x_7_0
       + 78.620000000000 x_7_1 >= 1673.871700000000
 qc69: [ - x_8_0^2 - x_8_1^2 ] + droot_6_8 + 22.680000000000 x_8_0
       + 78.620000000000 x_8_1 >= 1673.871700000000
 qc70: [ - x_9_0^2 - x_9_1^2 ] + droot_6_9 + 22.680000000000 x_9_0
       + 78.620000000000 x_9_1 >= 1673.871700000000
 qc71: [ - x_0_0^2 - x_0_1^2 ] + droot_7_0 + 60.960000000000 x_0_0
       + 63.480000000000 x_0_1 >= 1936.458000000000
 qc72: [ - x_1_0^2 - x_1_1^2 ] + droot_7_1 + 60.960000000000 x_1_0
       + 63.480000000000 x_1_1 >= 1936.458000000000
 qc73: [ - x_2_0^2 - x_2_1^2 ] + droot_7_2 + 60.960000000000 x_2_0
       + 63.480000000000 x_2_1 >= 1936.458000000000
 qc74: [ - x_3_0^2 - x_3_1^2 ] + droot_7_3 + 60.960000000000 x_3_0
       + 63.480000000000 x_3_1 >= 1936.458000000000
 qc75: [ - x_4_0^2 - x_4_1^2 ] + droot_7_4 + 60.960000000000 x_4_0
       + 63.480000000000 x_4_1 >= 1936.458000000000
 qc76: [ - x_5_0^2 - x_5_1^2 ] + droot_7_5 + 60.960000000000 x_5_0
       + 63.480000000000 x_5_1 >= 1936.458000000000
 qc77: [ - x_6_0^2 - x_6_1^2 ] + droot_7_6 + 60.960000000000 x_6_0
       + 63.480000000000 x_6_1 >= 1936.458000000000
 qc78: [ - x_7_0^2 - x_7_1^2 ] + droot_7_7 + 60.960000000000 x_7_0
       + 63.480000000000 x_7_1 >= 1936.458000000000
 qc79: [ - x_8_0^2 - x_8_1^2 ] + droot_7_8 + 60.960000000000 x_8_0
       + 63.480000000000 x_8_1 >= 1936.458000000000
 qc80: [ - x_9_0^2 - x_9_1^2 ] + droot_7_9 + 60.960000000000 x_9_0
       + 63.480000000000 x_9_1 >= 1936.458000000000
 qc81: [ - x_0_0^2 - x_0_1^2 ] + droot_8_0 + 53.240000000000 x_0_0
       + 106.240000000000 x_0_1 >= 3530.358800000000
 qc82: [ - x_1_0^2 - x_1_1^2 ] + droot_8_1 + 53.240000000000 x_1_0
       + 106.240000000000 x_1_1 >= 3530.358800000000
 qc83: [ - x_2_0^2 - x_2_1^2 ] + droot_8_2 + 53.240000000000 x_2_0
       + 106.240000000000 x_2_1 >= 3530.358800000000
 qc84: [ - x_3_0^2 - x_3_1^2 ] + droot_8_3 + 53.240000000000 x_3_0
       + 106.240000000000 x_3_1 >= 3530.358800000000
 qc85: [ - x_4_0^2 - x_4_1^2 ] + droot_8_4 + 53.240000000000 x_4_0
       + 106.240000000000 x_4_1 >= 3530.358800000000
 qc86: [ - x_5_0^2 - x_5_1^2 ] + droot_8_5 + 53.240000000000 x_5_0
       + 106.240000000000 x_5_1 >= 3530.358800000000
 qc87: [ - x_6_0^2 - x_6_1^2 ] + droot_8_6 + 53.240000000000 x_6_0
       + 106.240000000000 x_6_1 >= 3530.358800000000
 qc88: [ - x_7_0^2 - x_7_1^2 ] + droot_8_7 + 53.240000000000 x_7_0
       + 106.240000000000 x_7_1 >= 3530.358800000000
 qc89: [ - x_8_0^2 - x_8_1^2 ] + droot_8_8 + 53.240000000000 x_8_0
       + 106.240000000000 x_8_1 >= 3530.358800000000
 qc90: [ - x_9_0^2 - x_9_1^2 ] + droot_8_9 + 53.240000000000 x_9_0
       + 106.240000000000 x_9_1 >= 3530.358800000000
 qc91: [ - x_0_0^2 - x_0_1^2 ] + droot_9_0 + 81.940000000000 x_0_0
       + 90.280000000000 x_0_1 >= 3716.160500000000
 qc92: [ - x_1_0^2 - x_1_1^2 ] + droot_9_1 + 81.940000000000 x_1_0
       + 90.280000000000 x_1_1 >= 3716.160500000000
 qc93: [ - x_2_0^2 - x_2_1^2 ] + droot_9_2 + 81.940000000000 x_2_0
       + 90.280000000000 x_2_1 >= 3716.160500000000
 qc94: [ - x_3_0^2 - x_3_1^2 ] + droot_9_3 + 81.940000000000 x_3_0
       + 90.280000000000 x_3_1 >= 3716.160500000000
 qc95: [ - x_4_0^2 - x_4_1^2 ] + droot_9_4 + 81.940000000000 x_4_0
       + 90.280000000000 x_4_1 >= 3716.160500000000
 qc96: [ - x_5_0^2 - x_5_1^2 ] + droot_9_5 + 81.940000000000 x_5_0
       + 90.280000000000 x_5_1 >= 3716.160500000000
 qc97: [ - x_6_0^2 - x_6_1^2 ] + droot_9_6 + 81.940000000000 x_6_0
       + 90.280000000000 x_6_1 >= 3716.160500000000
 qc98: [ - x_7_0^2 - x_7_1^2 ] + droot_9_7 + 81.940000000000 x_7_0
       + 90.280000000000 x_7_1 >= 3716.160500000000
 qc99: [ - x_8_0^2 - x_8_1^2 ] + droot_9_8 + 81.940000000000 x_8_0
       + 90.280000000000 x_8_1 >= 3716.160500000000
 qc100: [ - x_9_0^2 - x_9_1^2 ] + droot_9_9 + 81.940000000000 x_9_0
        + 90.280000000000 x_9_1 >= 3716.160500000000

Bounds
 0 <= v_0 <= 1
 0 <= v_1 <= 1
 0 <= v_2 <= 1
 0 <= v_3 <= 1
 0 <= v_4 <= 1
 0 <= v_5 <= 1
 0 <= v_6 <= 1
 0 <= v_7 <= 1
 0 <= v_8 <= 1
 0 <= v_9 <= 1
 6.480000000000 <= x_0_0 <= 40.970000000000
 23.610000000000 <= x_0_1 <= 64.330000000000
 6.480000000000 <= x_1_0 <= 40.970000000000
 23.610000000000 <= x_1_1 <= 64.330000000000
 6.480000000000 <= x_2_0 <= 40.970000000000
 23.610000000000 <= x_2_1 <= 64.330000000000
 6.480000000000 <= x_3_0 <= 40.970000000000
 23.610000000000 <= x_3_1 <= 64.330000000000
 6.480000000000 <= x_4_0 <= 40.970000000000
 23.610000000000 <= x_4_1 <= 64.330000000000
 6.480000000000 <= x_5_0 <= 40.970000000000
 23.610000000000 <= x_5_1 <= 64.330000000000
 6.480000000000 <= x_6_0 <= 40.970000000000
 23.610000000000 <= x_6_1 <= 64.330000000000
 6.480000000000 <= x_7_0 <= 40.970000000000
 23.610000000000 <= x_7_1 <= 64.330000000000
 6.480000000000 <= x_8_0 <= 40.970000000000
 23.610000000000 <= x_8_1 <= 64.330000000000
 6.480000000000 <= x_9_0 <= 40.970000000000
 23.610000000000 <= x_9_1 <= 64.330000000000
 0 <= u_0_2_0 <= 1
 0 <= u_0_2_1 <= 1
 0 <= u_0_2_2 <= 1
 0 <= u_0_2_3 <= 1
 0 <= u_0_2_4 <= 1
 0 <= u_0_2_5 <= 1
 0 <= u_0_2_6 <= 1
 0 <= u_0_2_7 <= 1
 0 <= u_0_2_8 <= 1
 0 <= u_0_2_9 <= 1
 0 <= u_0_5_0 <= 1
 0 <= u_0_5_1 <= 1
 0 <= u_0_5_2 <= 1
 0 <= u_0_5_3 <= 1
 0 <= u_0_5_4 <= 1
 0 <= u_0_5_5 <= 1
 0 <= u_0_5_6 <= 1
 0 <= u_0_5_7 <= 1
 0 <= u_0_5_8 <= 1
 0 <= u_0_5_9 <= 1
 0 <= u_0_6_0 <= 1
 0 <= u_0_6_1 <= 1
 0 <= u_0_6_2 <= 1
 0 <= u_0_6_3 <= 1
 0 <= u_0_6_4 <= 1
 0 <= u_0_6_5 <= 1
 0 <= u_0_6_6 <= 1
 0 <= u_0_6_7 <= 1
 0 <= u_0_6_8 <= 1
 0 <= u_0_6_9 <= 1
 0 <= u_0_8_0 <= 1
 0 <= u_0_8_1 <= 1
 0 <= u_0_8_2 <= 1
 0 <= u_0_8_3 <= 1
 0 <= u_0_8_4 <= 1
 0 <= u_0_8_5 <= 1
 0 <= u_0_8_6 <= 1
 0 <= u_0_8_7 <= 1
 0 <= u_0_8_8 <= 1
 0 <= u_0_8_9 <= 1
 0 <= u_1_0_0 <= 1
 0 <= u_1_0_1 <= 1
 0 <= u_1_0_2 <= 1
 0 <= u_1_0_3 <= 1
 0 <= u_1_0_4 <= 1
 0 <= u_1_0_5 <= 1
 0 <= u_1_0_6 <= 1
 0 <= u_1_0_7 <= 1
 0 <= u_1_0_8 <= 1
 0 <= u_1_0_9 <= 1
 0 <= u_1_1_0 <= 1
 0 <= u_1_1_1 <= 1
 0 <= u_1_1_2 <= 1
 0 <= u_1_1_3 <= 1
 0 <= u_1_1_4 <= 1
 0 <= u_1_1_5 <= 1
 0 <= u_1_1_6 <= 1
 0 <= u_1_1_7 <= 1
 0 <= u_1_1_8 <= 1
 0 <= u_1_1_9 <= 1
 0 <= u_1_4_0 <= 1
 0 <= u_1_4_1 <= 1
 0 <= u_1_4_2 <= 1
 0 <= u_1_4_3 <= 1
 0 <= u_1_4_4 <= 1
 0 <= u_1_4_5 <= 1
 0 <= u_1_4_6 <= 1
 0 <= u_1_4_7 <= 1
 0 <= u_1_4_8 <= 1
 0 <= u_1_4_9 <= 1

Binaries
 v_0 v_1 v_2 v_3 v_4 v_5 v_6 v_7 v_8 v_9 u_0_2_0 u_0_2_1 u_0_2_2 u_0_2_3 u_0_2_4
 u_0_2_5 u_0_2_6 u_0_2_7 u_0_2_8 u_0_2_9 u_0_5_0 u_0_5_1 u_0_5_2 u_0_5_3 u_0_5_4
 u_0_5_5 u_0_5_6 u_0_5_7 u_0_5_8 u_0_5_9 u_0_6_0 u_0_6_1 u_0_6_2 u_0_6_3 u_0_6_4
 u_0_6_5 u_0_6_6 u_0_6_7 u_0_6_8 u_0_6_9 u_0_8_0 u_0_8_1 u_0_8_2 u_0_8_3 u_0_8_4
 u_0_8_5 u_0_8_6 u_0_8_7 u_0_8_8 u_0_8_9 u_1_0_0 u_1_0_1 u_1_0_2 u_1_0_3 u_1_0_4
 u_1_0_5 u_1_0_6 u_1_0_7 u_1_0_8 u_1_0_9 u_1_1_0 u_1_1_1 u_1_1_2 u_1_1_3 u_1_1_4
 u_1_1_5 u_1_1_6 u_1_1_7 u_1_1_8 u_1_1_9 u_1_4_0 u_1_4_1 u_1_4_2 u_1_4_3 u_1_4_4
 u_1_4_5 u_1_4_6 u_1_4_7 u_1_4_8 u_1_4_9

Generals
 w_0 w_1 w_2 w_3 w_4 w_5 w_6 w_7 w_8 w_9
End
